NAME : amz0009.80436_80436.tour
COMMENT : Cost = 80436_80436
COMMENT : Found by LKH-AMZ [Keld Helsgaun] Sun May 11 12:06:14 2025
COMMENT : TW viol.: 0 #: 0
TYPE : TOUR
DIMENSION : 105
TOUR_SECTION
31
16
53
39
54
57
38
18
32
8
33
81
95
84
40
50
76
19
105
87
66
21
93
13
28
23
14
72
43
91
44
80
92
1
83
71
79
2
47
22
58
77
41
102
12
67
73
37
48
82
15
75
100
61
97
78
98
3
62
90
63
88
96
45
25
26
104
6
24
101
86
68
65
94
52
9
60
55
11
99
27
64
5
10
42
35
29
49
69
36
56
46
103
85
4
59
30
89
70
51
34
74
7
17
20
-1
EOF
